************************************************************************
file with basedata            : mm56_.bas
initial value random generator: 2083613613
************************************************************************
projects                      :  1
jobs (incl. supersource/sink ):  12
horizon                       :  84
RESOURCES
  - renewable                 :  2   R
  - nonrenewable              :  2   N
  - doubly constrained        :  0   D
************************************************************************
PROJECT INFORMATION:
pronr.  #jobs rel.date duedate tardcost  MPM-Time
    1     10      0       15        3       15
************************************************************************
PRECEDENCE RELATIONS:
jobnr.    #modes  #successors   successors
   0        1          3           1   2   3
   1        3          1           4
   2        3          2           7   8
   3        3          2           5   6
   4        3          1          10
   5        3          2           7   8
   6        3          3           7   8   9
   7        3          1          10
   8        3          1          11
   9        3          1          11
  10        3          1          11
  11        1          0        
************************************************************************
REQUESTS/DURATIONS:
jobnr. mode duration  R 1  R 2  R 3  R 4  E(W 1)
------------------------------------------------------------------------
  0      1     0       0    0    0    0     0
  1      1     5       5    5    8    5    115
  2      1     1       7    9    7    7    30
  3      1     1       3    4    9    6    22
  4      1     1       6    5    6    7    24
  5      1     1      10    4    7    3    24
  6      1     7       9   10    5    8    224
  7      1     3       4    1    5   10    63
  8      1     2       9    8    7    7    62
  9      1     7       4    8    2    8    154
 10      1     2       7    6    3    9    50
 11      1     0       0    0    0    0     0
************************************************************************
RESOURCEAVAILABILITIES:
  R 1
   166
************************************************************************
RESOURCE LIMITS:
jobnr.  l(R 1)  u(R 1)
------------------------------------------------------------------------
  0        0       0
  1       13      23
  2       17      30
  3       12      22
  4       13      24
  5       13      24
  6       17      32
  7       11      21
  8       17      31
  9       11      22
 10       14      25
 11        0       0
************************************************************************
SCENARIOS:
------------------------------------------------------------------------
RESOURCE k = 1
s = 1: (0, 78, 43, 14, 38, 22, 286, 62, 56, 126, 53, 0)
s = 2: (0, 159, 37, 15, 18, 18, 253, 49, 86, 98, 27, 0)
s = 3: (0, 75, 27, 31, 19, 29, 371, 49, 57, 135, 69, 0)
s = 4: (0, 155, 34, 19, 24, 15, 281, 52, 77, 181, 49, 0)
s = 5: (0, 112, 31, 23, 19, 13, 246, 75, 79, 124, 41, 0)
s = 6: (0, 97, 34, 33, 22, 15, 237, 47, 72, 184, 55, 0)
s = 7: (0, 146, 26, 25, 22, 22, 231, 42, 55, 221, 50, 0)
s = 8: (0, 148, 29, 17, 16, 23, 148, 66, 76, 123, 56, 0)
s = 9: (0, 97, 26, 16, 27, 29, 154, 59, 59, 107, 46, 0)
s = 10: (0, 85, 27, 22, 23, 25, 300, 47, 67, 185, 69, 0)
s = 11: (0, 135, 22, 13, 18, 18, 308, 89, 48, 234, 53, 0)
s = 12: (0, 163, 22, 24, 31, 21, 283, 56, 65, 110, 48, 0)
s = 13: (0, 154, 20, 17, 21, 34, 272, 77, 55, 165, 50, 0)
s = 14: (0, 86, 25, 23, 20, 34, 270, 68, 67, 150, 60, 0)
s = 15: (0, 93, 25, 15, 16, 18, 169, 44, 64, 147, 49, 0)
s = 16: (0, 82, 22, 26, 21, 27, 287, 40, 40, 174, 51, 0)
s = 17: (0, 102, 27, 23, 18, 31, 154, 84, 64, 221, 52, 0)
s = 18: (0, 83, 24, 29, 31, 16, 224, 79, 112, 113, 63, 0)
s = 19: (0, 156, 40, 32, 20, 31, 195, 96, 84, 181, 64, 0)
s = 20: (0, 129, 21, 19, 19, 31, 241, 47, 63, 148, 42, 0)
s = 21: (0, 96, 41, 21, 22, 16, 162, 57, 42, 89, 58, 0)
s = 22: (0, 133, 30, 18, 26, 29, 320, 83, 83, 86, 35, 0)
s = 23: (0, 165, 30, 19, 19, 24, 292, 76, 53, 230, 71, 0)
s = 24: (0, 154, 30, 31, 26, 26, 227, 59, 73, 138, 47, 0)
s = 25: (0, 193, 22, 15, 35, 25, 169, 35, 47, 205, 44, 0)
s = 26: (0, 88, 29, 23, 37, 33, 287, 42, 36, 122, 36, 0)
s = 27: (0, 161, 25, 15, 20, 17, 163, 83, 77, 196, 57, 0)
s = 28: (0, 87, 18, 22, 24, 25, 201, 81, 69, 168, 49, 0)
s = 29: (0, 105, 19, 17, 20, 34, 236, 45, 54, 145, 55, 0)
s = 30: (0, 92, 30, 17, 19, 22, 209, 71, 66, 195, 34, 0)
s = 31: (0, 128, 28, 19, 22, 22, 169, 51, 64, 107, 49, 0)
s = 32: (0, 133, 19, 14, 22, 19, 291, 78, 43, 139, 58, 0)
s = 33: (0, 118, 17, 16, 19, 41, 148, 47, 53, 159, 66, 0)
s = 34: (0, 108, 20, 27, 26, 15, 257, 114, 44, 171, 54, 0)
s = 35: (0, 85, 27, 25, 34, 24, 274, 41, 54, 164, 50, 0)
s = 36: (0, 188, 44, 16, 23, 23, 211, 43, 52, 122, 63, 0)
s = 37: (0, 61, 27, 23, 24, 14, 250, 44, 77, 243, 43, 0)
s = 38: (0, 122, 28, 33, 30, 20, 139, 90, 41, 256, 54, 0)
s = 39: (0, 141, 19, 25, 25, 34, 366, 57, 43, 117, 72, 0)
s = 40: (0, 152, 24, 22, 35, 29, 325, 47, 82, 127, 77, 0)
s = 41: (0, 155, 50, 38, 22, 30, 250, 74, 48, 204, 52, 0)
s = 42: (0, 83, 34, 20, 23, 30, 209, 48, 36, 140, 50, 0)
s = 43: (0, 195, 27, 22, 13, 17, 155, 38, 75, 108, 45, 0)
s = 44: (0, 127, 25, 19, 26, 28, 121, 35, 72, 180, 45, 0)
s = 45: (0, 237, 25, 17, 16, 17, 307, 54, 49, 171, 74, 0)
s = 46: (0, 175, 28, 13, 33, 32, 185, 50, 57, 122, 58, 0)
s = 47: (0, 165, 16, 22, 30, 14, 156, 49, 54, 171, 57, 0)
s = 48: (0, 101, 24, 24, 17, 25, 234, 46, 56, 244, 51, 0)
s = 49: (0, 133, 26, 32, 19, 20, 198, 46, 44, 151, 41, 0)
s = 50: (0, 78, 27, 34, 24, 29, 180, 35, 48, 232, 54, 0)
s = 51: (0, 111, 36, 12, 25, 30, 212, 59, 56, 161, 46, 0)
s = 52: (0, 154, 44, 33, 28, 16, 168, 58, 33, 221, 31, 0)
s = 53: (0, 78, 35, 20, 22, 17, 114, 60, 53, 121, 38, 0)
s = 54: (0, 78, 43, 36, 24, 22, 207, 42, 88, 139, 58, 0)
s = 55: (0, 75, 24, 34, 41, 18, 218, 35, 35, 140, 60, 0)
s = 56: (0, 96, 28, 13, 25, 26, 303, 85, 65, 175, 51, 0)
s = 57: (0, 154, 26, 27, 16, 20, 283, 48, 74, 115, 54, 0)
s = 58: (0, 104, 47, 22, 33, 18, 157, 60, 42, 197, 48, 0)
s = 59: (0, 89, 33, 26, 36, 22, 160, 42, 52, 103, 48, 0)
s = 60: (0, 91, 35, 21, 24, 29, 214, 66, 46, 219, 78, 0)
s = 61: (0, 113, 29, 28, 24, 24, 206, 47, 47, 153, 66, 0)
s = 62: (0, 225, 44, 17, 21, 16, 123, 57, 68, 132, 66, 0)
s = 63: (0, 163, 47, 17, 25, 19, 199, 76, 101, 202, 61, 0)
s = 64: (0, 156, 31, 22, 31, 22, 161, 85, 59, 127, 65, 0)
s = 65: (0, 160, 23, 17, 33, 34, 179, 58, 68, 200, 42, 0)
s = 66: (0, 136, 16, 17, 20, 21, 214, 38, 57, 191, 45, 0)
s = 67: (0, 153, 49, 14, 13, 40, 210, 68, 40, 132, 34, 0)
s = 68: (0, 130, 40, 30, 39, 35, 196, 63, 53, 83, 41, 0)
s = 69: (0, 114, 30, 28, 32, 35, 238, 78, 85, 136, 45, 0)
s = 70: (0, 120, 52, 19, 17, 21, 381, 49, 65, 108, 46, 0)
s = 71: (0, 123, 38, 19, 20, 29, 133, 40, 56, 191, 36, 0)
s = 72: (0, 78, 30, 26, 15, 22, 206, 54, 37, 125, 60, 0)
s = 73: (0, 85, 30, 25, 20, 19, 298, 64, 46, 116, 47, 0)
s = 74: (0, 99, 35, 16, 18, 35, 162, 93, 81, 205, 46, 0)
s = 75: (0, 79, 20, 23, 33, 16, 287, 53, 59, 170, 32, 0)
s = 76: (0, 125, 28, 19, 22, 27, 266, 63, 52, 175, 28, 0)
s = 77: (0, 84, 30, 20, 20, 39, 175, 59, 48, 174, 86, 0)
s = 78: (0, 150, 32, 21, 39, 16, 183, 50, 51, 174, 65, 0)
s = 79: (0, 134, 47, 14, 39, 21, 296, 52, 55, 111, 51, 0)
s = 80: (0, 138, 31, 29, 35, 17, 197, 53, 73, 215, 48, 0)
s = 81: (0, 179, 22, 22, 23, 20, 157, 52, 48, 194, 43, 0)
s = 82: (0, 112, 18, 17, 37, 20, 250, 47, 60, 110, 39, 0)
s = 83: (0, 168, 28, 28, 19, 16, 254, 51, 68, 159, 50, 0)
s = 84: (0, 110, 18, 32, 28, 19, 211, 47, 42, 176, 49, 0)
s = 85: (0, 104, 22, 18, 29, 18, 275, 69, 65, 153, 40, 0)
s = 86: (0, 122, 17, 20, 23, 23, 305, 70, 77, 106, 57, 0)
s = 87: (0, 79, 43, 21, 28, 14, 278, 47, 63, 179, 36, 0)
s = 88: (0, 110, 22, 16, 24, 29, 172, 35, 71, 144, 36, 0)
s = 89: (0, 62, 19, 19, 28, 20, 182, 52, 99, 141, 86, 0)
s = 90: (0, 120, 42, 23, 19, 21, 338, 38, 53, 117, 62, 0)
s = 91: (0, 122, 26, 28, 34, 33, 251, 54, 45, 201, 57, 0)
s = 92: (0, 92, 47, 17, 29, 34, 271, 109, 85, 153, 34, 0)
s = 93: (0, 110, 26, 35, 24, 22, 142, 71, 81, 159, 54, 0)
s = 94: (0, 94, 36, 24, 24, 21, 239, 62, 34, 102, 39, 0)
s = 95: (0, 89, 20, 14, 33, 24, 233, 37, 88, 232, 48, 0)
s = 96: (0, 79, 33, 16, 34, 17, 250, 73, 69, 106, 46, 0)
s = 97: (0, 163, 37, 14, 25, 30, 318, 46, 66, 115, 73, 0)
s = 98: (0, 130, 20, 21, 16, 32, 271, 38, 61, 161, 61, 0)
s = 99: (0, 86, 29, 26, 16, 24, 262, 90, 46, 101, 50, 0)
s = 100: (0, 101, 29, 20, 29, 42, 195, 75, 74, 167, 38, 0)
s = 101: (0, 118, 55, 25, 26, 24, 151, 63, 69, 178, 65, 0)
s = 102: (0, 114, 31, 24, 30, 23, 218, 96, 88, 107, 61, 0)
s = 103: (0, 112, 25, 21, 22, 26, 151, 45, 48, 106, 47, 0)
s = 104: (0, 198, 22, 17, 25, 44, 180, 76, 43, 117, 31, 0)
s = 105: (0, 117, 27, 23, 15, 20, 153, 99, 82, 115, 36, 0)
s = 106: (0, 130, 23, 15, 27, 19, 151, 79, 56, 149, 53, 0)
s = 107: (0, 105, 39, 20, 21, 37, 200, 59, 37, 153, 30, 0)
s = 108: (0, 159, 47, 18, 24, 25, 273, 53, 58, 164, 61, 0)
s = 109: (0, 137, 27, 30, 22, 15, 183, 46, 74, 220, 71, 0)
s = 110: (0, 113, 45, 26, 28, 26, 238, 56, 61, 197, 72, 0)
s = 111: (0, 121, 23, 17, 18, 26, 359, 47, 39, 185, 27, 0)
s = 112: (0, 107, 26, 23, 20, 21, 150, 84, 41, 170, 53, 0)
s = 113: (0, 112, 24, 19, 18, 22, 246, 64, 74, 114, 57, 0)
s = 114: (0, 98, 28, 30, 25, 16, 232, 48, 68, 95, 48, 0)
s = 115: (0, 130, 29, 25, 21, 20, 325, 96, 34, 258, 42, 0)
s = 116: (0, 91, 22, 22, 21, 18, 179, 68, 46, 109, 43, 0)
s = 117: (0, 173, 38, 34, 23, 15, 242, 67, 66, 120, 71, 0)
s = 118: (0, 119, 21, 20, 16, 29, 187, 71, 67, 192, 28, 0)
s = 119: (0, 81, 28, 31, 35, 31, 179, 63, 68, 162, 36, 0)
s = 120: (0, 66, 26, 22, 17, 18, 171, 69, 52, 127, 52, 0)
s = 121: (0, 86, 28, 26, 26, 18, 155, 51, 77, 239, 53, 0)
s = 122: (0, 88, 29, 24, 33, 35, 223, 68, 110, 170, 37, 0)
s = 123: (0, 164, 36, 15, 30, 14, 174, 88, 43, 87, 38, 0)
s = 124: (0, 79, 24, 16, 36, 25, 295, 75, 79, 195, 56, 0)
s = 125: (0, 134, 23, 24, 40, 17, 289, 53, 88, 122, 36, 0)
s = 126: (0, 134, 38, 19, 39, 16, 289, 35, 93, 191, 40, 0)
s = 127: (0, 87, 28, 19, 26, 21, 325, 101, 54, 131, 61, 0)
s = 128: (0, 105, 23, 22, 36, 27, 237, 53, 42, 110, 41, 0)
s = 129: (0, 93, 40, 14, 21, 22, 279, 52, 39, 210, 34, 0)
s = 130: (0, 128, 38, 28, 19, 24, 150, 87, 66, 146, 39, 0)
s = 131: (0, 142, 50, 17, 23, 27, 136, 64, 89, 121, 47, 0)
s = 132: (0, 88, 36, 21, 22, 38, 317, 39, 47, 133, 48, 0)
s = 133: (0, 94, 28, 15, 26, 17, 187, 82, 58, 159, 27, 0)
s = 134: (0, 94, 26, 21, 22, 20, 239, 54, 32, 229, 55, 0)
s = 135: (0, 88, 32, 34, 39, 19, 339, 74, 92, 119, 41, 0)
s = 136: (0, 147, 36, 18, 21, 26, 222, 59, 65, 196, 59, 0)
s = 137: (0, 82, 42, 25, 17, 32, 279, 47, 59, 105, 48, 0)
s = 138: (0, 89, 40, 22, 36, 41, 352, 36, 47, 170, 37, 0)
s = 139: (0, 175, 24, 19, 34, 16, 164, 53, 40, 110, 29, 0)
s = 140: (0, 86, 19, 27, 23, 25, 199, 43, 76, 149, 84, 0)
s = 141: (0, 139, 34, 16, 31, 14, 258, 41, 61, 178, 47, 0)
s = 142: (0, 122, 25, 23, 30, 33, 150, 68, 58, 133, 64, 0)
s = 143: (0, 101, 19, 26, 23, 21, 227, 76, 82, 148, 27, 0)
s = 144: (0, 111, 21, 21, 31, 19, 187, 43, 88, 175, 60, 0)
s = 145: (0, 119, 32, 21, 21, 28, 165, 75, 57, 162, 43, 0)
s = 146: (0, 163, 31, 22, 28, 31, 152, 85, 88, 181, 44, 0)
s = 147: (0, 145, 41, 22, 29, 18, 255, 47, 62, 195, 70, 0)
s = 148: (0, 97, 32, 21, 23, 21, 298, 37, 63, 168, 86, 0)
s = 149: (0, 99, 38, 21, 17, 28, 379, 58, 92, 256, 69, 0)
s = 150: (0, 109, 31, 22, 32, 23, 205, 53, 69, 116, 52, 0)
s = 151: (0, 184, 36, 16, 22, 18, 272, 78, 75, 221, 58, 0)
s = 152: (0, 138, 29, 20, 27, 24, 144, 77, 63, 217, 54, 0)
s = 153: (0, 170, 19, 24, 22, 22, 218, 72, 39, 209, 47, 0)
s = 154: (0, 187, 23, 16, 15, 23, 377, 46, 61, 206, 39, 0)
s = 155: (0, 143, 35, 21, 25, 19, 342, 71, 40, 227, 32, 0)
s = 156: (0, 128, 50, 17, 20, 26, 240, 49, 50, 130, 42, 0)
s = 157: (0, 100, 34, 27, 24, 19, 282, 52, 54, 135, 38, 0)
s = 158: (0, 141, 26, 20, 18, 28, 126, 38, 57, 155, 74, 0)
s = 159: (0, 101, 19, 35, 26, 23, 188, 46, 57, 141, 33, 0)
s = 160: (0, 95, 26, 31, 24, 20, 141, 73, 57, 254, 80, 0)
s = 161: (0, 103, 25, 31, 38, 20, 262, 78, 76, 167, 70, 0)
s = 162: (0, 114, 43, 20, 31, 31, 217, 72, 56, 132, 71, 0)
s = 163: (0, 96, 37, 26, 25, 25, 224, 36, 41, 225, 36, 0)
s = 164: (0, 76, 22, 24, 17, 32, 314, 55, 81, 140, 64, 0)
s = 165: (0, 121, 24, 16, 14, 16, 322, 62, 43, 109, 49, 0)
s = 166: (0, 145, 25, 20, 17, 25, 160, 67, 75, 146, 59, 0)
s = 167: (0, 145, 29, 16, 25, 24, 300, 64, 50, 145, 51, 0)
s = 168: (0, 144, 20, 19, 21, 17, 207, 37, 51, 192, 54, 0)
s = 169: (0, 169, 26, 24, 22, 17, 353, 53, 84, 176, 66, 0)
s = 170: (0, 91, 23, 17, 33, 24, 208, 65, 84, 130, 75, 0)
s = 171: (0, 118, 27, 22, 24, 27, 243, 69, 91, 106, 68, 0)
s = 172: (0, 66, 22, 25, 26, 16, 275, 51, 93, 102, 63, 0)
s = 173: (0, 67, 44, 25, 22, 23, 348, 70, 53, 279, 75, 0)
s = 174: (0, 166, 24, 33, 20, 25, 241, 84, 47, 176, 34, 0)
s = 175: (0, 72, 16, 19, 28, 18, 257, 82, 64, 106, 43, 0)
s = 176: (0, 120, 28, 27, 14, 15, 294, 75, 38, 130, 43, 0)
s = 177: (0, 96, 23, 24, 20, 24, 195, 66, 54, 121, 46, 0)
s = 178: (0, 117, 24, 15, 30, 16, 162, 63, 96, 153, 61, 0)
s = 179: (0, 145, 22, 19, 20, 26, 156, 57, 61, 183, 27, 0)
s = 180: (0, 84, 19, 29, 20, 38, 224, 39, 39, 172, 53, 0)
s = 181: (0, 150, 20, 16, 31, 15, 144, 53, 54, 155, 54, 0)
s = 182: (0, 88, 23, 27, 42, 29, 214, 92, 78, 128, 49, 0)
s = 183: (0, 205, 41, 19, 24, 26, 199, 38, 43, 130, 66, 0)
s = 184: (0, 80, 24, 30, 23, 26, 276, 45, 67, 131, 50, 0)
s = 185: (0, 135, 24, 20, 23, 25, 147, 69, 53, 155, 61, 0)
s = 186: (0, 95, 35, 21, 20, 24, 184, 82, 49, 125, 49, 0)
s = 187: (0, 135, 35, 19, 18, 26, 207, 97, 69, 208, 62, 0)
s = 188: (0, 114, 45, 32, 15, 19, 222, 52, 34, 231, 47, 0)
s = 189: (0, 120, 38, 24, 24, 26, 252, 51, 56, 107, 65, 0)
s = 190: (0, 149, 37, 18, 28, 15, 211, 48, 84, 199, 27, 0)
s = 191: (0, 102, 41, 19, 20, 24, 180, 45, 69, 128, 55, 0)
s = 192: (0, 225, 23, 22, 26, 30, 196, 49, 63, 131, 55, 0)
s = 193: (0, 130, 21, 33, 21, 17, 263, 63, 47, 151, 36, 0)
s = 194: (0, 215, 33, 15, 21, 29, 184, 41, 113, 166, 67, 0)
s = 195: (0, 109, 33, 26, 32, 16, 323, 83, 64, 141, 60, 0)
s = 196: (0, 96, 33, 37, 36, 39, 242, 45, 55, 162, 57, 0)
s = 197: (0, 155, 28, 37, 21, 28, 145, 76, 60, 220, 45, 0)
s = 198: (0, 96, 22, 16, 20, 18, 245, 56, 60, 180, 66, 0)
s = 199: (0, 80, 46, 18, 25, 20, 292, 41, 46, 225, 55, 0)
s = 200: (0, 89, 39, 16, 24, 31, 187, 41, 40, 160, 48, 0)
************************************************************************
ES/LS-VALUES:
jobnr.   ES(i)    LS(i)
------------------------------------------------------------------------
  0        0        0
  1        0       67
  2        0       72
  3        0       57
  4       10       78
  5        1       72
  6        1       59
  7       12       74
  8       12       80
  9       12       71
 10       17       80
 11       24       84
************************************************************************
BIG-M-VALUES:
M1 = 26, M2 = 381
************************************************************************
